c Reduced graph for 2-FullIns_4_2 generated by Cyril Grelier
p edge 44 167
e 1 4
e 1 9
e 1 17
e 1 18
e 1 19
e 1 20
e 1 28
e 1 29
e 1 30
e 1 31
e 1 32
e 1 33
e 1 34
e 1 35
e 1 36
e 1 37
e 1 38
e 1 39
e 1 40
e 1 41
e 1 42
e 1 43
e 1 44
e 2 5
e 2 10
e 2 11
e 2 12
e 2 17
e 2 21
e 2 22
e 2 23
e 2 24
e 2 25
e 2 26
e 2 27
e 2 28
e 2 29
e 2 30
e 2 35
e 2 36
e 2 37
e 2 38
e 2 39
e 2 40
e 2 41
e 3 6
e 3 7
e 3 8
e 3 10
e 3 11
e 3 12
e 3 13
e 3 14
e 3 18
e 3 19
e 3 20
e 3 22
e 3 23
e 3 28
e 3 29
e 3 30
e 3 31
e 3 32
e 3 36
e 3 37
e 4 5
e 4 10
e 4 11
e 4 12
e 4 21
e 4 22
e 4 23
e 4 24
e 4 25
e 4 26
e 4 27
e 5 6
e 5 7
e 5 8
e 5 13
e 5 14
e 5 18
e 5 19
e 5 20
e 5 31
e 5 32
e 6 7
e 6 8
e 6 9
e 6 11
e 6 12
e 6 17
e 6 19
e 6 20
e 6 29
e 6 30
e 7 8
e 7 9
e 7 10
e 7 12
e 7 17
e 7 18
e 7 20
e 7 28
e 7 30
e 8 9
e 8 10
e 8 11
e 8 17
e 8 18
e 8 19
e 8 28
e 8 29
e 9 10
e 9 11
e 9 12
e 9 13
e 9 14
e 9 22
e 9 23
e 10 19
e 10 20
e 11 18
e 11 20
e 12 18
e 12 19
e 13 16
e 13 17
e 13 25
e 13 34
e 13 39
e 14 15
e 14 17
e 14 24
e 14 33
e 14 38
e 15 16
e 15 23
e 15 25
e 15 32
e 15 34
e 15 37
e 15 39
e 16 22
e 16 24
e 16 31
e 16 33
e 16 36
e 16 38
e 21 26
e 21 27
e 21 40
e 21 41
e 22 34
e 23 33
e 24 32
e 24 34
e 25 31
e 25 33
e 26 27
e 26 35
e 26 41
e 27 35
e 27 40
e 42 43
e 42 44
e 43 44
